proyfinal/src/viki/013/andrea/andrea-localstore/experimentInOfficeAgust.take6/worker_2/cc9991f6-c093-40c0-b07c-6f4399f8d25c.als.cnf.out
Reading from standard input... Use '--help' for help.
============================[ Problem Statistics ]=============================
|                                                                             |
|  Number of variables:         87638                                         |
|  Number of clauses:          161767                                         |
|  Parse time:                   0.04 s                                       |
|                                                                             |
============================[ Search Statistics ]==============================
| Conflicts |          ORIGINAL         |          LEARNT          | Progress |
|           |    Vars  Clauses Literals |    Limit  Clauses Lit/Cl |          |
===============================================================================
|       100 |   61939   103662   258951 |    38009      100     21 | 29.324 % |
|       250 |   61939   103662   258951 |    41810      250     23 | 29.324 % |
|       475 |   61939   103662   258951 |    45991      475     30 | 29.324 % |
|       812 |   61938   103618   258861 |    50590      810     51 | 29.325 % |
|      1318 |   61938   103618   258861 |    55649     1316    104 | 29.325 % |
|      2077 |   61938   103618   258861 |    61214     2075     96 | 29.325 % |
|      3216 |   61938   103618   258861 |    67335     3214     88 | 29.325 % |
|      4924 |   61929   103585   258777 |    74069     4921     84 | 29.335 % |
|      7486 |   61929   103585   258777 |    81476     7483     90 | 29.335 % |
===============================================================================
restarts              : 44
conflicts             : 9991           (6384 /sec)
decisions             : 29963          (0.00 % random) (19145 /sec)
propagations          : 15967658       (10202468 /sec)
conflict literals     : 864814         (52.37 % deleted)
Memory used           : 31.34 MB
CPU time              : 1.56508 s

UNSATISFIABLE
